3
5
0 779 595 481 715 
779 0 385 603 275 
595 385 0 694 558 
481 603 694 0 384 
715 275 558 384 0 
0 701 372 689 360 
701 0 334 107 864 
372 334 0 345 604 
689 107 345 0 807 
360 864 604 807 0 
0 266 765 743 446 
266 0 672 791 395 
765 672 0 396 319 
743 791 396 0 414 
446 395 319 414 0 
